p cnf 100 30
x -5 -6 7 8 -10 -12 -15 16 20 -21 -23 -24 -26 33 -34 -36 37 -39 -40 46 -48 -50 51 52 53 55 -59 60 -61 63 -65 -66 -67 72 -73 79 -80 -81 83 -84 89 -94 -99 100 0
x -1 2 -3 -5 6 7 -8 9 14 17 18 20 -22 23 25 -26 27 30 32 33 34 -36 -38 -39 -41 -42 -44 -51 -53 -57 58 -60 61 -65 -66 -67 -68 -70 -71 76 77 79 82 -83 -84 85 -86 -88 89 -91 92 94 -95 -96 -99 100 0
x -5 -10 -13 -17 -20 -22 24 -28 -31 -32 33 -35 36 37 38 40 42 -43 -47 -50 -51 -53 55 58 60 62 -63 64 -65 69 70 -72 73 74 -77 80 81 84 85 -86 -87 -88 90 -91 92 93 95 0
x -1 -2 -3 -4 7 -8 -11 -12 -13 -14 -17 18 19 -21 -25 -26 27 28 -29 -30 -31 -35 -37 40 -41 -42 -44 45 48 -51 -52 53 -55 57 -58 61 62 64 72 -73 75 -76 -78 79 81 -83 -87 -88 -90 -91 92 -94 95 97 -99 0
x -1 3 -9 -10 -11 12 -13 14 15 16 -17 -21 -23 24 26 30 -31 -32 -37 38 -41 43 -45 -47 -49 55 56 -57 59 -60 -61 -63 64 -65 -66 67 68 -69 -70 -71 73 74 79 82 -83 -86 -87 94 -96 -98 100 0
x 1 2 -3 -5 -8 -11 -14 15 16 -22 25 -26 -29 31 35 36 37 38 -39 41 42 47 48 49 51 -55 56 58 -60 61 -62 -63 69 -70 -72 74 -78 -79 81 82 83 85 -87 89 90 -91 -92 93 94 -95 96 -99 0
x -1 7 9 11 12 16 -22 -28 -29 -33 34 -35 36 -38 -41 -42 43 -45 -47 -48 50 -52 54 56 -57 -60 -62 -63 -66 68 72 -73 74 -76 -77 80 -81 84 85 86 87 91 94 -99 -100 0
x 1 -2 -4 6 -8 11 13 16 17 -24 -26 27 -29 -30 -32 33 34 -37 38 39 -41 -42 -44 -45 50 -54 -55 57 -58 59 -60 -61 -63 65 66 -67 -71 72 73 78 80 -82 -84 -85 -89 -90 92 -93 -96 97 98 -99 100 0
x 1 2 3 10 15 -17 -18 -21 22 -26 27 32 34 35 -37 -40 -41 42 -43 -44 45 -47 50 -52 54 56 57 -59 65 -67 -72 -73 -74 76 81 82 -83 86 87 89 92 -93 94 96 -97 -98 0
x -1 4 5 13 15 -21 22 -24 -25 26 -30 31 34 38 -39 40 43 -44 49 -50 -52 -53 -56 -60 -62 -65 -67 68 -71 -72 75 78 -81 -84 -85 -87 -88 89 -93 -94 96 98 0
x -1 2 3 5 6 7 -9 10 -13 14 15 -19 -20 -21 -23 -24 27 -28 29 -32 34 -37 -42 -45 -46 48 -49 53 57 59 -60 61 62 64 66 68 73 -74 75 -77 -78 -80 81 -83 -84 87 -88 -91 -92 94 95 -98 99 -100 0
x 1 -3 4 -5 12 14 16 17 23 24 -26 -28 31 -32 34 38 -39 -40 43 44 46 -49 54 56 -60 61 65 -67 -68 -72 74 -75 78 -80 -81 -82 83 86 -90 -93 95 0
x 2 3 -8 -10 -12 15 18 -19 -20 24 28 -30 -31 32 -33 -34 -35 36 39 -40 -41 45 -46 47 48 -52 53 -54 57 -58 -59 -61 -63 64 -65 66 -68 72 74 -79 -80 -82 -86 -87 89 95 -98 99 0
x 2 -4 -7 -8 10 -11 -13 -14 -15 -16 -17 -19 20 -23 24 25 26 28 -29 30 -32 33 -34 35 36 -37 39 -40 43 44 45 -49 50 -51 52 53 55 -56 57 -58 59 61 62 -64 66 -68 -71 -75 -76 78 -82 -84 -87 -89 90 -91 92 -94 -95 -97 -99 0
x 2 -7 -8 -10 11 -13 -15 -18 19 20 -21 24 26 28 -29 30 31 32 34 -36 -37 -38 -40 42 -44 -47 48 50 52 -53 54 -55 -57 -58 -60 -66 72 73 76 80 -81 -83 85 86 88 -89 90 94 -96 97 99 -100 0
x 2 3 -4 7 11 12 -13 -16 -18 20 23 28 -29 -30 -33 -35 36 -40 43 44 50 -51 -53 -54 -56 -57 -58 -61 -64 -65 67 68 -69 -70 -74 76 -77 -79 81 82 -85 87 89 -90 -91 92 94 95 -100 0
x -1 2 -3 -6 7 -11 -12 -13 14 20 21 22 -23 -25 -28 -29 31 34 35 -36 -39 40 41 42 45 49 52 56 -57 59 -65 69 72 73 74 -76 -77 -78 -79 82 -84 -87 -88 90 91 92 94 -95 -96 97 98 -100 0
x 1 3 -4 5 -7 -11 12 13 15 -17 18 19 -22 -23 -24 -25 -31 -33 -34 -35 -36 -38 -40 -41 42 45 -46 47 50 51 -53 55 57 60 61 62 -64 66 -68 70 -71 73 -74 -78 80 83 -87 89 91 -95 97 -98 100 0
x -1 -3 5 7 -9 11 12 13 -16 19 21 22 -23 -26 -28 32 -33 -34 37 -38 41 -42 43 -44 47 -48 49 -51 -52 -53 55 57 58 59 -61 62 63 -64 -66 69 -71 -72 -73 -77 -79 -80 -82 -85 -87 90 93 94 -96 -98 -99 0
x 1 12 13 -14 15 18 19 -20 22 -24 27 28 -29 31 33 -35 -36 -39 -41 43 -44 45 46 -48 51 -52 53 -54 -55 -56 -58 -62 68 75 78 79 81 83 87 -88 -89 -90 91 93 -95 -96 97 -98 100 0
x 2 4 5 10 14 17 18 -20 -21 -23 -24 25 28 -30 32 33 -34 -35 36 -38 -39 -40 -45 46 47 -49 -51 52 -54 59 -61 62 65 -67 68 -75 76 77 80 81 84 -86 -88 -89 -91 92 -93 94 96 -98 0
x 1 3 -7 -9 13 -15 -16 -17 -21 24 -25 -27 28 -31 32 33 -35 -38 39 -41 42 43 44 -45 -46 47 -48 49 -50 -52 -54 -58 60 -62 -73 78 -80 -81 -83 -84 85 86 87 -88 89 93 -97 98 -99 0
x 2 -3 -9 12 -13 -18 -19 20 -21 22 -25 26 28 29 -33 35 36 37 -38 -39 41 -44 45 50 -52 -57 60 63 -64 66 67 68 -69 70 71 75 -77 78 -79 83 -85 -87 -90 -91 94 -99 0
x -1 2 4 5 -7 9 -13 -14 15 16 17 18 23 26 -27 -28 29 32 35 -36 37 38 39 40 46 -48 -50 52 -55 58 59 61 67 -68 -69 -71 -72 74 -75 77 -78 80 81 82 -83 85 -90 91 -96 97 -99 0
x 1 2 -3 -4 5 6 9 13 14 -20 -21 -22 -23 26 -28 30 32 33 -34 -37 38 41 -43 44 46 -47 -49 -50 -52 -53 -55 -58 60 -64 66 -68 -69 70 -79 80 89 93 -97 -99 -100 0
x 2 -3 -6 -7 8 11 -13 15 -16 17 -20 -24 25 -26 -27 -28 32 33 -35 -37 -39 -43 -45 -46 -48 50 -52 54 -56 58 -61 62 63 -67 70 72 -73 -74 75 76 77 78 79 -82 85 86 89 90 -91 93 -96 -97 98 99 0
x -4 5 6 8 -9 -10 15 -17 19 20 -21 24 -31 -32 34 -36 38 -40 41 43 45 46 -49 -50 60 -61 -63 -65 66 -69 -70 71 73 -74 -75 77 78 -80 83 -85 -91 -92 -94 -95 96 -97 -100 0
x -3 -6 7 8 9 11 12 15 16 18 19 20 21 22 25 -27 28 30 31 32 -33 -34 35 -36 -39 40 -42 43 -46 -49 50 51 -52 -56 -57 -58 -59 61 63 -65 -66 67 -69 -70 71 -75 79 -80 84 87 92 93 96 98 0
x -2 6 -8 -15 -18 -20 21 -23 -24 -25 26 -28 35 36 -38 -42 -43 -47 -48 49 50 -51 -52 56 57 -59 -62 -64 -65 66 -68 71 -74 -75 -77 -78 80 81 84 87 -91 92 -94 95 -96 97 -98 99 -100 0
x -1 3 -4 -6 7 -9 10 19 -20 21 -22 24 -25 27 -29 36 40 41 44 46 -47 48 -49 50 51 53 57 -58 60 64 67 68 -70 73 -76 -78 -79 -81 82 85 86 87 -88 90 92 -95 -96 97 99 -100 0
g -30